 &input
   fildyn='si.dyn',       
   zasr='simple', 
   flfrc='si.fc'
 /
