Phonons on a uniform q-grid
 &inputph
  prefix='AlAs',
  tr2_ph = 1.0d-14,
  amass(1) = 26.98,
  amass(2) = 74.92,
  ldisp = .true.,
  nq1 = 4, 
  nq2 = 4, 
  nq3 = 4,
  outdir='./out'
  fildyn='AlAs.dyn',
 /
