phonons of si at X
 &inputph
  tr2_ph=1.0d-14,
  prefix='si',
  amass(1)=28.08,
  outdir='./tmp/',
  fildyn='si.dynX',
 /
1.0 0.0 0.0
