 &control
    calculation='scf',
    restart_mode='from_scratch',
    prefix='si'
    pseudo_dir = './',
    outdir='./tmp/'
    tstress = .true.
    tprnfor = .true.
 /
 &system
    ibrav = 2, celldm(1) =10.20, nat=  2, ntyp= 1,
    ecutwfc = 120.0,
 /
 &electrons
    mixing_beta = 0.7
    diagonalization = 'david'
    mixing_mode = 'plain'
    conv_thr =  1.0d-8
 /
ATOMIC_SPECIES
 Si  28.086  Si.pbesol-n-rrkjus_psl.1.0.0.UPF
ATOMIC_POSITIONS
 Si 0.00 0.00 0.00
 Si 0.25 0.25 0.25
K_POINTS {automatic}
 16 16 16 0 0 0
