 &input
   fildyn='AlAs.dyn', 
   zasr='simple', 
   flfrc='AlAs444.fc'
 /
