 &control
    pseudo_dir = '.',
    outdir='./temp/',
    verbosity = 'high',
    tstress = .true.
    prefix='si',
 /
 &system
    ibrav=  2, celldm(1)=10.2612, nat=  2, ntyp= 1,
    ecutwfc = 9.00000000000000000000
    ecutrho = 180.0
    nbnd = 10,
    nspin = 1
    occupations = 'smearing'
    smearing = 'gaussian'
    degauss = 0.01
 /
 &electrons
    mixing_beta = 0.3 
    mixing_mode = 'plain',
    conv_thr =  1.0d-9,
 /
ATOMIC_SPECIES
 Si  28.086  Si.pbesol-n-rrkjus_psl.1.0.0.UPF
ATOMIC_POSITIONS crystal
 Si 0.0   0.0   0.0 
 Si 0.25  0.25  0.25 
K_POINTS automatic
6 6 6 0 0 0
